c Result of efficient AIG-to-CNF conversion using package CNF
p cnf 583 2184
-2 3 261 399 463 0
2 -463 0
2 -3 0
2 -399 0
2 -261 0
-3 4 45 171 191 0
-3 -4 -45 171 191 0
3 -191 0
3 -4 45 0
3 -171 0
3 4 -45 0
4 -5 -36 0
4 -5 -37 0
-4 5 0
-4 36 37 0
5 -6 -27 -32 -33 0
-5 33 0
-5 6 0
-5 32 0
-5 27 0
6 -7 -8 -9 -16 0
-6 16 0
-6 7 0
-6 9 0
-6 8 0
7 -545 577 0
-7 545 0
-7 -577 0
8 -544 576 0
-8 544 0
-8 -576 0
9 -10 -13 -14 -15 0
-9 15 0
-9 10 0
-9 14 0
-9 13 0
10 -534 566 -11 -12 0
-10 12 0
-10 534 0
-10 11 0
-10 -566 0
11 -540 572 0
-11 540 0
-11 -572 0
12 -533 565 0
-12 533 0
-12 -565 0
13 -535 567 0
-13 535 0
-13 -567 0
14 -539 571 0
-14 539 0
-14 -571 0
15 -532 564 0
-15 532 0
-15 -564 0
16 -17 -18 -19 -20 0
-16 20 0
-16 17 0
-16 19 0
-16 18 0
17 -543 575 0
-17 543 0
-17 -575 0
18 -541 573 0
-18 541 0
-18 -573 0
19 -542 574 0
-19 542 0
-19 -574 0
20 -536 568 -21 -22 0
-20 22 0
-20 536 0
-20 21 0
-20 -568 0
21 -528 560 0
-21 528 0
-21 -560 0
22 -23 -24 -25 -26 0
-22 26 0
-22 23 0
-22 25 0
-22 24 0
23 -537 569 0
-23 537 0
-23 -569 0
24 -531 563 0
-24 531 0
-24 -563 0
25 -523 555 0
-25 523 0
-25 -555 0
26 -524 556 0
-26 524 0
-26 -556 0
27 -526 558 -28 -29 0
-27 29 0
-27 526 0
-27 28 0
-27 -558 0
28 -530 562 0
-28 530 0
-28 -562 0
29 -519 551 -30 -31 0
-29 31 0
-29 519 0
-29 30 0
-29 -551 0
30 -525 557 0
-30 525 0
-30 -557 0
31 -527 559 0
-31 527 0
-31 -559 0
32 -522 -538 554 570 0
-32 538 0
-32 -570 0
-32 522 0
-32 -554 0
33 -520 552 -34 -35 0
-33 35 0
-33 520 0
-33 34 0
-33 -552 0
34 -521 553 0
-34 521 0
-34 -553 0
35 -529 561 0
-35 529 0
-35 -561 0
36 -546 578 0
-36 546 0
-36 -578 0
37 -38 -39 0
-37 38 0
-37 39 0
38 -547 579 0
-38 547 0
-38 -579 0
39 -40 -41 0
-39 40 0
-39 41 0
40 -548 580 0
-40 548 0
-40 -580 0
41 -42 -44 0
41 -519 42 -43 0
-41 42 43 0
-41 -42 44 0
-41 519 42 0
42 -549 581 0
-42 549 0
-42 -581 0
43 -550 582 0
-43 550 0
-43 -582 0
44 -521 -43 0
44 -520 43 0
-44 520 43 0
-44 521 -43 0
45 -46 -96 -98 -122 0
-45 122 0
-45 46 0
-45 98 0
-45 96 0
46 -47 -88 0
-46 47 0
-46 88 0
47 -48 -80 -86 0
-47 48 0
-47 80 0
-47 86 0
48 -49 79 0
48 49 -79 0
-48 49 79 0
-48 -49 -79 0
49 525 -557 0
49 -557 -50 0
49 525 -50 0
-49 557 50 0
-49 -525 557 0
-49 -525 50 0
50 526 -558 0
50 -558 -51 0
50 526 -51 0
-50 558 51 0
-50 -526 558 0
-50 -526 51 0
51 527 -559 0
51 -559 -52 0
51 527 -52 0
-51 559 52 0
-51 -527 559 0
-51 -527 52 0
52 528 -560 0
52 -560 -53 0
52 528 -53 0
-52 560 53 0
-52 -528 560 0
-52 -528 53 0
53 529 -561 0
53 -561 -54 0
53 529 -54 0
-53 561 54 0
-53 -529 561 0
-53 -529 54 0
54 530 -562 0
54 -562 -55 0
54 530 -55 0
-54 562 55 0
-54 -530 562 0
-54 -530 55 0
55 531 -563 0
55 -563 -56 0
55 531 -56 0
-55 563 56 0
-55 -531 563 0
-55 -531 56 0
56 532 -564 0
56 -564 -57 0
56 532 -57 0
-56 564 57 0
-56 -532 564 0
-56 -532 57 0
57 533 -565 0
57 -565 -58 0
57 533 -58 0
-57 565 58 0
-57 -533 565 0
-57 -533 58 0
58 534 -566 0
58 -566 -59 0
58 534 -59 0
-58 566 59 0
-58 -534 566 0
-58 -534 59 0
59 535 -567 0
59 -567 -60 0
59 535 -60 0
-59 567 60 0
-59 -535 567 0
-59 -535 60 0
60 536 -568 0
60 -568 -61 0
60 536 -61 0
-60 568 61 0
-60 -536 568 0
-60 -536 61 0
61 537 -569 0
61 -569 -62 0
61 537 -62 0
-61 569 62 0
-61 -537 569 0
-61 -537 62 0
62 538 -570 0
62 -570 -63 0
62 538 -63 0
-62 570 63 0
-62 -538 570 0
-62 -538 63 0
63 539 -571 0
63 -571 -64 0
63 539 -64 0
-63 571 64 0
-63 -539 571 0
-63 -539 64 0
64 540 -572 0
64 -572 -65 0
64 540 -65 0
-64 572 65 0
-64 -540 572 0
-64 -540 65 0
65 541 -573 0
65 -573 -66 0
65 541 -66 0
-65 573 66 0
-65 -541 573 0
-65 -541 66 0
66 542 -574 0
66 -574 -67 0
66 542 -67 0
-66 574 67 0
-66 -542 574 0
-66 -542 67 0
67 543 -575 0
67 -575 -68 0
67 543 -68 0
-67 575 68 0
-67 -543 575 0
-67 -543 68 0
68 544 -576 0
68 -576 -69 0
68 544 -69 0
-68 576 69 0
-68 -544 576 0
-68 -544 69 0
69 545 -577 0
69 -577 -70 0
69 545 -70 0
-69 577 70 0
-69 -545 577 0
-69 -545 70 0
70 36 -71 0
70 36 -72 0
-70 -36 0
-70 71 72 0
71 546 -578 0
-71 -546 0
-71 578 0
72 38 -73 0
72 38 -74 0
-72 -38 0
-72 73 74 0
73 547 -579 0
-73 -547 0
-73 579 0
74 40 -75 0
74 40 -76 0
-74 -40 0
-74 75 76 0
75 548 -580 0
-75 -548 0
-75 580 0
76 42 -77 0
76 42 -78 0
-76 -42 0
-76 77 78 0
77 550 -582 0
-77 -550 0
-77 582 0
78 549 -581 0
-78 -549 0
-78 581 0
-79 -524 -556 0
-79 524 556 0
79 524 -556 0
79 -524 556 0
80 520 552 81 -82 0
80 -520 -552 81 -82 0
80 520 -552 81 82 0
80 -520 552 -81 82 0
-80 -81 -82 0
-80 520 552 82 0
-80 520 -552 -82 0
-80 520 -81 0
-80 -520 552 81 0
-80 -520 -552 82 0
-81 -519 -551 0
-81 519 551 0
81 519 -551 0
81 -519 551 0
82 521 -553 0
82 -553 -83 0
82 521 -83 0
-82 553 83 0
-82 -521 553 0
-82 -521 83 0
83 522 -554 0
83 -554 -84 0
83 522 -84 0
-83 554 84 0
-83 -522 554 0
-83 -522 84 0
84 523 -555 0
84 -555 -85 0
84 523 -85 0
-84 555 85 0
-84 -523 555 0
-84 -523 85 0
85 524 -556 0
85 -556 -49 0
85 524 -49 0
-85 556 49 0
-85 -524 556 0
-85 -524 49 0
86 -84 87 0
86 84 -87 0
-86 84 87 0
-86 -84 -87 0
-87 -522 -554 0
-87 522 554 0
87 522 -554 0
87 -522 554 0
88 -89 -94 0
-88 89 0
-88 94 0
89 -90 -92 0
-89 90 0
-89 92 0
90 -83 91 0
90 83 -91 0
-90 83 91 0
-90 -83 -91 0
-91 -521 -553 0
-91 521 553 0
91 521 -553 0
91 -521 553 0
92 -50 93 0
92 50 -93 0
-92 50 93 0
-92 -50 -93 0
-93 -525 -557 0
-93 525 557 0
93 525 -557 0
93 -525 557 0
94 -85 95 0
94 85 -95 0
-94 85 95 0
-94 -85 -95 0
-95 -523 -555 0
-95 523 555 0
95 523 -555 0
95 -523 555 0
96 -51 97 0
96 51 -97 0
-96 51 97 0
-96 -51 -97 0
-97 -526 -558 0
-97 526 558 0
97 526 -558 0
97 -526 558 0
98 -99 -120 0
-98 99 0
-98 120 0
99 -100 -118 0
-99 100 0
-99 118 0
100 -101 -106 0
-100 101 0
-100 106 0
101 -102 -104 0
-101 102 0
-101 104 0
102 -64 103 0
102 64 -103 0
-102 64 103 0
-102 -64 -103 0
-103 -539 -571 0
-103 539 571 0
103 539 -571 0
103 -539 571 0
104 -63 105 0
104 63 -105 0
-104 63 105 0
-104 -63 -105 0
-105 -538 -570 0
-105 538 570 0
105 538 -570 0
105 -538 570 0
106 -107 -113 0
-106 107 0
-106 113 0
107 -55 -108 -110 112 0
107 55 -108 -110 -112 0
-107 108 0
-107 55 112 0
-107 110 0
-107 -55 -112 0
108 532 -564 57 109 0
108 532 564 -57 109 0
108 -532 -564 -57 109 0
108 -532 564 57 -109 0
-108 532 -109 0
-108 -532 564 109 0
-108 532 -564 -57 0
-108 -57 -109 0
-108 564 57 109 0
-108 -532 -564 57 0
-109 -531 -563 0
-109 531 563 0
109 531 -563 0
109 -531 563 0
110 -54 111 0
110 54 -111 0
-110 54 111 0
-110 -54 -111 0
-111 -529 -561 0
-111 529 561 0
111 529 -561 0
111 -529 561 0
-112 -530 -562 0
-112 530 562 0
112 530 -562 0
112 -530 562 0
113 -114 -116 0
-113 114 0
-113 116 0
114 -58 115 0
114 58 -115 0
-114 58 115 0
-114 -58 -115 0
-115 -533 -565 0
-115 533 565 0
115 533 -565 0
115 -533 565 0
116 -59 117 0
116 59 -117 0
-116 59 117 0
-116 -59 -117 0
-117 -534 -566 0
-117 534 566 0
117 534 -566 0
117 -534 566 0
118 -52 119 0
118 52 -119 0
-118 52 119 0
-118 -52 -119 0
-119 -527 -559 0
-119 527 559 0
119 527 -559 0
119 -527 559 0
120 -53 121 0
120 53 -121 0
-120 53 121 0
-120 -53 -121 0
-121 -528 -560 0
-121 528 560 0
121 528 -560 0
121 -528 560 0
122 -123 143 -167 0
122 -123 -143 -145 0
-122 123 0
-122 143 167 0
-122 -143 145 0
123 -124 -136 -141 0
-123 124 0
-123 136 0
-123 141 0
124 -125 -134 0
-124 125 0
-124 134 0
125 -126 -132 0
-125 126 0
-125 132 0
126 127 -129 -130 0
126 69 -127 129 -130 0
-126 127 129 0
-126 -127 -129 0
-126 130 0
-126 -69 -127 0
-127 -544 128 0
-127 576 128 0
127 -128 0
127 544 -576 0
-128 -543 -575 0
-128 543 575 0
128 543 -575 0
128 -543 575 0
129 8 -69 0
129 543 -575 8 0
129 -543 575 8 0
-129 -8 0
-129 543 575 69 0
-129 -543 -575 69 0
-130 70 131 0
-130 -70 -131 0
130 -70 131 0
130 70 -131 0
-131 -545 -577 0
-131 545 577 0
131 545 -577 0
131 -545 577 0
132 542 -574 67 133 0
132 542 574 -67 133 0
132 -542 -574 -67 133 0
132 -542 574 67 -133 0
-132 542 -133 0
-132 -542 574 133 0
-132 542 -574 -67 0
-132 -67 -133 0
-132 574 67 133 0
-132 -542 -574 67 0
-133 -541 -573 0
-133 541 573 0
133 541 -573 0
133 -541 573 0
134 -65 135 0
134 65 -135 0
-134 65 135 0
-134 -65 -135 0
-135 -540 -572 0
-135 540 572 0
135 540 -572 0
135 -540 572 0
136 -137 -139 0
-136 137 0
-136 139 0
137 -62 138 0
137 62 -138 0
-137 62 138 0
-137 -62 -138 0
-138 -537 -569 0
-138 537 569 0
138 537 -569 0
138 -537 569 0
139 -61 140 0
139 61 -140 0
-139 61 140 0
-139 -61 -140 0
-140 -536 -568 0
-140 536 568 0
140 536 -568 0
140 -536 568 0
141 -60 142 0
141 60 -142 0
-141 60 142 0
-141 -60 -142 0
-142 -535 -567 0
-142 535 567 0
142 535 -567 0
142 -535 567 0
-143 72 144 0
-143 -72 -144 0
143 -72 144 0
143 72 -144 0
-144 -546 -578 0
-144 546 578 0
144 546 -578 0
144 -546 578 0
145 146 -148 0
145 -146 -160 0
-145 -146 160 0
-145 146 148 0
-146 74 147 0
-146 -74 -147 0
146 -74 147 0
146 74 -147 0
-147 -547 -579 0
-147 547 579 0
147 547 -579 0
147 -547 579 0
148 -149 -151 0
148 149 -157 0
-148 149 157 0
-148 -149 151 0
-149 76 150 0
-149 -76 -150 0
149 -76 150 0
149 76 -150 0
-150 -548 -580 0
-150 548 580 0
150 548 -580 0
150 -548 580 0
151 -152 -154 0
151 152 -156 0
-151 152 156 0
-151 -152 154 0
-152 77 153 0
-152 -77 -153 0
152 -77 153 0
152 77 -153 0
-153 -549 -581 0
-153 549 581 0
153 549 -581 0
153 -549 581 0
154 -529 -155 0
154 -528 155 0
-154 529 -155 0
-154 528 155 0
-155 43 77 0
155 -43 0
155 -77 0
156 -527 -155 0
156 -526 155 0
-156 527 -155 0
-156 526 155 0
157 -152 -158 0
157 152 -159 0
-157 152 159 0
-157 -152 158 0
158 -525 -155 0
158 -524 155 0
-158 525 -155 0
-158 524 155 0
159 -523 -155 0
159 -522 155 0
-159 523 -155 0
-159 522 155 0
160 -149 -161 0
160 149 -164 0
-160 149 164 0
-160 -149 161 0
161 -152 -162 0
161 152 -163 0
-161 152 163 0
-161 -152 162 0
162 -537 -155 0
162 -536 155 0
-162 537 -155 0
-162 536 155 0
163 -535 -155 0
163 -534 155 0
-163 535 -155 0
-163 534 155 0
164 -152 -165 0
164 152 -166 0
-164 152 166 0
-164 -152 165 0
165 -533 -155 0
165 -532 155 0
-165 533 -155 0
-165 532 155 0
166 -531 -155 0
166 -530 155 0
-166 531 -155 0
-166 530 155 0
167 -146 -168 0
-167 146 0
-167 168 0
168 -149 -169 0
-168 149 0
-168 169 0
169 -152 -170 0
169 -519 152 -155 0
-169 -152 170 0
-169 152 155 0
-169 519 152 0
170 -521 -155 0
170 -520 155 0
-170 521 -155 0
-170 520 155 0
-171 172 177 -188 -189 0
-171 -172 -177 -188 -189 0
-171 172 177 188 189 0
-171 -172 -177 188 189 0
171 172 -177 0
171 -172 177 0
171 188 -189 0
171 -188 189 0
172 -173 -174 0
-172 173 0
-172 174 0
173 -5 -36 0
-173 5 0
-173 36 0
174 -38 -175 0
-174 38 0
-174 175 0
175 -40 -176 0
-175 40 0
-175 176 0
176 -519 -42 43 0
176 -520 -42 -43 0
-176 42 0
-176 520 -43 0
-176 519 43 0
177 -46 -96 -178 -180 0
-177 180 0
-177 46 0
-177 178 0
-177 96 0
178 -107 -179 0
-178 107 0
-178 179 0
179 -118 -120 0
-179 118 0
-179 120 0
180 -181 -182 -185 0
-180 181 0
-180 182 0
-180 185 0
181 -113 -141 0
-181 113 0
-181 141 0
182 -101 -126 -134 -183 0
-182 183 0
-182 101 0
-182 134 0
-182 126 0
183 -136 -184 0
-183 136 0
-183 184 0
184 -132 -143 0
-184 132 0
-184 143 0
185 -146 -186 0
-185 146 0
-185 186 0
186 -149 -187 0
-186 149 0
-186 187 0
187 -519 -152 155 0
187 -520 -152 -155 0
-187 152 0
-187 519 155 0
-187 520 -155 0
188 -37 -173 0
-188 37 0
-188 173 0
189 -46 -96 -178 -190 0
-189 190 0
-189 46 0
-189 178 0
-189 96 0
190 -167 -181 -182 0
-190 167 0
-190 181 0
-190 182 0
-191 192 220 -251 -257 0
-191 -192 -220 -251 -257 0
-191 192 220 251 257 0
-191 -192 -220 251 257 0
191 192 -220 0
191 -192 220 0
191 251 -257 0
191 -251 257 0
192 -5 36 -208 0
192 -5 -36 -193 0
-192 5 0
-192 -36 193 0
-192 36 208 0
-193 -38 194 0
-193 38 201 0
193 -38 -194 0
193 38 -201 0
-194 -40 195 0
-194 40 198 0
194 -40 -195 0
194 40 -198 0
-195 -42 197 0
-195 42 196 0
195 42 -196 0
195 -42 -197 0
196 -546 -43 0
196 -545 43 0
-196 545 43 0
-196 546 -43 0
197 -548 -43 0
197 -547 43 0
-197 547 43 0
-197 548 -43 0
198 -42 -199 0
198 42 -200 0
-198 42 200 0
-198 -42 199 0
199 -544 -43 0
199 -543 43 0
-199 543 43 0
-199 544 -43 0
200 -542 -43 0
200 -541 43 0
-200 541 43 0
-200 542 -43 0
201 -40 -202 0
201 40 -205 0
-201 40 205 0
-201 -40 202 0
202 -42 -203 0
202 42 -204 0
-202 42 204 0
-202 -42 203 0
203 -540 -43 0
203 -539 43 0
-203 539 43 0
-203 540 -43 0
204 -538 -43 0
204 -537 43 0
-204 537 43 0
-204 538 -43 0
205 -42 -206 0
205 42 -207 0
-205 42 207 0
-205 -42 206 0
206 -536 -43 0
206 -535 43 0
-206 535 43 0
-206 536 -43 0
207 -534 -43 0
207 -533 43 0
-207 533 43 0
-207 534 -43 0
208 -38 -209 0
208 38 -216 0
-208 38 216 0
-208 -38 209 0
209 -40 -210 0
209 40 -213 0
-209 40 213 0
-209 -40 210 0
210 -42 -211 0
210 42 -212 0
-210 42 212 0
-210 -42 211 0
211 -532 -43 0
211 -531 43 0
-211 531 43 0
-211 532 -43 0
212 -530 -43 0
212 -529 43 0
-212 529 43 0
-212 530 -43 0
213 -42 -214 0
213 42 -215 0
-213 42 215 0
-213 -42 214 0
214 -528 -43 0
214 -527 43 0
-214 527 43 0
-214 528 -43 0
215 -526 -43 0
215 -525 43 0
-215 525 43 0
-215 526 -43 0
216 40 -176 0
216 -40 -217 0
-216 -40 217 0
-216 40 176 0
217 -42 -218 0
217 42 -219 0
-217 42 219 0
-217 -42 218 0
218 -524 -43 0
218 -523 43 0
-218 523 43 0
-218 524 -43 0
219 -522 -43 0
219 -521 43 0
-219 521 43 0
-219 522 -43 0
220 -46 -123 -221 -249 0
-220 249 0
-220 46 0
-220 221 0
-220 123 0
221 -143 -222 0
221 143 -237 0
-221 143 237 0
-221 -143 222 0
222 -146 -223 0
222 146 -230 0
-222 146 230 0
-222 -146 223 0
223 -149 -224 0
223 149 -227 0
-223 149 227 0
-223 -149 224 0
224 -152 -225 0
224 152 -226 0
-224 152 226 0
-224 -152 225 0
225 -548 -155 0
225 -547 155 0
-225 548 -155 0
-225 547 155 0
226 -546 -155 0
226 -545 155 0
-226 546 -155 0
-226 545 155 0
227 -152 -228 0
227 152 -229 0
-227 152 229 0
-227 -152 228 0
228 -544 -155 0
228 -543 155 0
-228 544 -155 0
-228 543 155 0
229 -542 -155 0
229 -541 155 0
-229 542 -155 0
-229 541 155 0
230 -149 -231 0
230 149 -234 0
-230 149 234 0
-230 -149 231 0
231 -152 -232 0
231 152 -233 0
-231 152 233 0
-231 -152 232 0
232 -540 -155 0
232 -539 155 0
-232 540 -155 0
-232 539 155 0
233 -538 -155 0
233 -537 155 0
-233 538 -155 0
-233 537 155 0
234 -152 -235 0
234 152 -236 0
-234 152 236 0
-234 -152 235 0
235 -536 -155 0
235 -535 155 0
-235 536 -155 0
-235 535 155 0
236 -534 -155 0
236 -533 155 0
-236 534 -155 0
-236 533 155 0
237 -146 -238 0
237 146 -245 0
-237 146 245 0
-237 -146 238 0
238 -149 -239 0
238 149 -242 0
-238 149 242 0
-238 -149 239 0
239 -152 -240 0
239 152 -241 0
-239 152 241 0
-239 -152 240 0
240 -532 -155 0
240 -531 155 0
-240 532 -155 0
-240 531 155 0
241 -530 -155 0
241 -529 155 0
-241 530 -155 0
-241 529 155 0
242 -152 -243 0
242 152 -244 0
-242 152 244 0
-242 -152 243 0
243 -528 -155 0
243 -527 155 0
-243 528 -155 0
-243 527 155 0
244 -526 -155 0
244 -525 155 0
-244 526 -155 0
-244 525 155 0
245 149 -187 0
245 -149 -246 0
-245 -149 246 0
-245 149 187 0
246 -152 -247 0
246 152 -248 0
-246 152 248 0
-246 -152 247 0
247 -524 -155 0
247 -523 155 0
-247 524 -155 0
-247 523 155 0
248 -522 -155 0
248 -521 155 0
-248 522 -155 0
-248 521 155 0
249 -99 -250 0
-249 99 0
-249 250 0
250 -96 -120 0
-250 96 0
-250 120 0
251 -173 -252 0
-251 173 0
-251 252 0
252 -38 -253 0
-252 38 0
-252 253 0
253 40 -41 0
253 -40 -254 0
-253 -40 254 0
-253 40 41 0
254 -42 -255 0
254 42 -256 0
-254 42 256 0
-254 -42 255 0
255 -525 -43 0
255 -524 43 0
-255 524 43 0
-255 525 -43 0
256 -523 -43 0
256 -522 43 0
-256 522 43 0
-256 523 -43 0
257 -46 -96 -178 -258 0
-257 258 0
-257 46 0
-257 178 0
-257 96 0
258 -181 -182 -259 0
-258 181 0
-258 182 0
-258 259 0
259 -146 -260 0
-259 146 0
-259 260 0
260 -149 -157 0
260 149 -169 0
-260 149 169 0
-260 -149 157 0
-261 262 273 286 348 0
-261 -262 -273 286 348 0
261 -348 0
261 -262 273 0
261 -286 0
261 262 -273 0
262 -173 -263 0
-262 173 0
-262 263 0
263 -38 -264 0
263 38 -270 0
-263 38 270 0
-263 -38 264 0
264 -40 -265 0
264 40 -268 0
-264 40 268 0
-264 -40 265 0
265 -42 -266 0
265 42 -267 0
-265 42 267 0
-265 -42 266 0
266 -531 -43 0
266 -530 43 0
-266 530 43 0
-266 531 -43 0
267 -529 -43 0
267 -528 43 0
-267 528 43 0
-267 529 -43 0
268 42 -255 0
268 -42 -269 0
-268 -42 269 0
-268 42 255 0
269 -527 -43 0
269 -526 43 0
-269 526 43 0
-269 527 -43 0
270 -40 -271 0
270 40 -272 0
-270 40 272 0
-270 -40 271 0
271 42 -44 0
271 -42 -256 0
-271 -42 256 0
-271 42 44 0
272 -519 -42 -43 0
-272 519 0
-272 42 0
-272 43 0
273 -92 -274 -276 -277 0
-273 277 0
-273 92 0
-273 276 0
-273 274 0
274 -100 -139 -143 -275 0
-274 275 0
-274 100 0
-274 139 0
-274 143 0
275 -137 -141 0
-275 137 0
-275 141 0
276 -94 -96 -118 0
-276 94 0
-276 96 0
-276 118 0
277 -47 -124 -278 -279 0
-277 279 0
-277 47 0
-277 278 0
-277 124 0
278 -90 -120 0
-278 90 0
-278 120 0
279 -146 -280 0
279 146 -283 0
-279 146 283 0
-279 -146 280 0
280 -149 -281 0
280 149 -282 0
-280 149 282 0
-280 -149 281 0
281 152 -154 0
281 -152 -166 0
-281 -152 166 0
-281 152 154 0
282 -152 -156 0
282 152 -158 0
-282 152 158 0
-282 -152 156 0
283 -149 -284 0
283 149 -285 0
-283 149 285 0
-283 -149 284 0
284 -152 -159 0
284 152 -170 0
-284 152 170 0
-284 -152 159 0
285 -519 -152 -155 0
-285 519 0
-285 155 0
-285 152 0
-286 287 329 338 0
-286 287 -329 -338 0
286 -287 0
286 -329 338 0
286 329 -338 0
-287 288 306 -317 -322 0
-287 -288 -306 -317 -322 0
-287 288 306 317 322 0
-287 -288 -306 317 322 0
287 288 -306 0
287 -288 306 0
287 317 -322 0
287 -317 322 0
288 -5 36 -303 0
288 -5 -36 -289 0
-288 5 0
-288 -36 289 0
-288 36 303 0
-289 -38 290 0
-289 38 297 0
289 -38 -290 0
289 38 -297 0
-290 -40 294 0
-290 40 291 0
290 40 -291 0
290 -40 -294 0
291 -42 -292 0
291 42 -293 0
-291 42 293 0
-291 -42 292 0
292 -541 -43 0
292 -540 43 0
-292 540 43 0
-292 541 -43 0
293 -539 -43 0
293 -538 43 0
-293 538 43 0
-293 539 -43 0
294 -42 -295 0
294 42 -296 0
-294 42 296 0
-294 -42 295 0
295 -545 -43 0
295 -544 43 0
-295 544 43 0
-295 545 -43 0
296 -543 -43 0
296 -542 43 0
-296 542 43 0
-296 543 -43 0
297 -40 -298 0
297 40 -301 0
-297 40 301 0
-297 -40 298 0
298 -42 -299 0
298 42 -300 0
-298 42 300 0
-298 -42 299 0
299 -537 -43 0
299 -536 43 0
-299 536 43 0
-299 537 -43 0
300 -535 -43 0
300 -534 43 0
-300 534 43 0
-300 535 -43 0
301 42 -266 0
301 -42 -302 0
-301 -42 302 0
-301 42 266 0
302 -533 -43 0
302 -532 43 0
-302 532 43 0
-302 533 -43 0
303 38 -39 0
303 -38 -304 0
-303 -38 304 0
-303 38 39 0
304 40 -254 0
304 -40 -305 0
-304 -40 305 0
-304 40 254 0
305 -42 -267 0
305 42 -269 0
-305 42 269 0
-305 -42 267 0
306 -46 -96 -98 -307 0
-306 307 0
-306 46 0
-306 98 0
-306 96 0
307 -123 143 -316 0
307 -123 -143 -308 0
-307 123 0
-307 143 316 0
-307 -143 308 0
308 146 -160 0
308 -146 -309 0
-308 -146 309 0
-308 146 160 0
309 -149 -310 0
309 149 -313 0
-309 149 313 0
-309 -149 310 0
310 -152 -311 0
310 152 -312 0
-310 152 312 0
-310 -152 311 0
311 -545 -155 0
311 -544 155 0
-311 545 -155 0
-311 544 155 0
312 -543 -155 0
312 -542 155 0
-312 543 -155 0
-312 542 155 0
313 -152 -314 0
313 152 -315 0
-313 152 315 0
-313 -152 314 0
314 -541 -155 0
314 -540 155 0
-314 541 -155 0
-314 540 155 0
315 -539 -155 0
315 -538 155 0
-315 539 -155 0
-315 538 155 0
316 -146 -148 0
316 146 -168 0
-316 146 168 0
-316 -146 148 0
317 -173 -318 0
-317 173 0
-317 318 0
318 -38 40 -320 0
318 -38 -40 -319 0
-318 38 0
-318 -40 319 0
-318 40 320 0
319 -42 -215 0
319 42 -218 0
-319 42 218 0
-319 -42 215 0
320 42 -321 0
320 -42 -219 0
-320 -42 219 0
-320 42 321 0
321 -520 -43 0
321 -519 43 0
-321 519 43 0
-321 520 -43 0
322 -46 -96 -178 -323 0
-322 323 0
-322 46 0
-322 178 0
-322 96 0
323 -181 -182 -324 0
-323 181 0
-323 182 0
-323 324 0
324 -146 -325 0
-324 146 0
-324 325 0
325 -149 -326 0
325 149 -327 0
-325 149 327 0
-325 -149 326 0
326 -152 -244 0
326 152 -247 0
-326 152 247 0
-326 -152 244 0
327 152 -328 0
327 -152 -248 0
-327 -152 248 0
-327 152 328 0
328 -520 -155 0
328 -519 155 0
-328 520 -155 0
-328 519 155 0
329 -5 36 -263 0
329 -5 -36 -330 0
-329 5 0
-329 -36 330 0
-329 36 263 0
-330 -38 331 0
-330 38 335 0
330 -38 -331 0
330 38 -335 0
-331 -40 332 0
-331 40 334 0
331 -40 -332 0
331 40 -334 0
-332 -42 333 0
-332 42 295 0
332 42 -295 0
332 -42 -333 0
333 -547 -43 0
333 -546 43 0
-333 546 43 0
-333 547 -43 0
334 42 -292 0
334 -42 -296 0
-334 -42 296 0
-334 42 292 0
335 -40 -336 0
335 40 -337 0
-335 40 337 0
-335 -40 336 0
336 -42 -293 0
336 42 -299 0
-336 42 299 0
-336 -42 293 0
337 -42 -300 0
337 42 -302 0
-337 42 302 0
-337 -42 300 0
338 -46 -96 -98 -339 0
-338 339 0
-338 46 0
-338 98 0
-338 96 0
339 -123 -143 -340 0
339 -123 143 -279 0
-339 123 0
-339 143 279 0
-339 -143 340 0
340 -146 -341 0
340 146 -345 0
-340 146 345 0
-340 -146 341 0
341 -149 -342 0
341 149 -344 0
-341 149 344 0
-341 -149 342 0
342 152 -311 0
342 -152 -343 0
-342 -152 343 0
-342 152 311 0
343 -547 -155 0
343 -546 155 0
-343 547 -155 0
-343 546 155 0
344 -152 -312 0
344 152 -314 0
-344 152 314 0
-344 -152 312 0
345 -149 -346 0
345 149 -347 0
-345 149 347 0
-345 -149 346 0
346 152 -162 0
346 -152 -315 0
-346 -152 315 0
-346 152 162 0
347 -152 -163 0
347 152 -165 0
-347 152 165 0
-347 -152 163 0
-348 349 368 371 374 0
-348 349 -368 -371 374 0
348 -374 0
348 -368 371 0
348 -349 0
348 368 -371 0
-349 350 351 -357 -362 0
-349 -350 -351 -357 -362 0
-349 350 351 357 362 0
-349 -350 -351 357 362 0
349 350 -351 0
349 -350 351 0
349 357 -362 0
349 -357 362 0
350 -5 -36 0
350 -5 -252 0
-350 5 0
-350 36 252 0
351 -100 -120 -352 -356 0
-351 356 0
-351 100 0
-351 352 0
-351 120 0
352 -123 -143 -353 0
352 -123 143 -259 0
-352 123 0
-352 143 259 0
-352 -143 353 0
353 146 -354 0
353 -146 -355 0
-353 -146 355 0
-353 146 354 0
354 149 -151 0
354 -149 -164 0
-354 -149 164 0
-354 149 151 0
355 149 -161 0
355 -149 -313 0
-355 -149 313 0
-355 149 161 0
356 -47 -89 -276 0
-356 47 0
-356 89 0
-356 276 0
357 -173 -358 0
-357 173 0
-357 358 0
358 -38 -359 0
358 38 -361 0
-358 38 361 0
-358 -38 359 0
359 40 -319 0
359 -40 -360 0
-359 -40 360 0
-359 40 319 0
360 -42 -212 0
360 42 -214 0
-360 42 214 0
-360 -42 212 0
361 -40 -320 0
-361 40 0
-361 320 0
362 -46 -124 -363 -367 0
-362 367 0
-362 46 0
-362 363 0
-362 124 0
363 -146 -364 0
363 146 -366 0
-363 146 366 0
-363 -146 364 0
364 149 -326 0
364 -149 -365 0
-364 -149 365 0
-364 149 326 0
365 -152 -241 0
365 152 -243 0
-365 152 243 0
-365 -152 241 0
366 -149 -327 0
-366 149 0
-366 327 0
367 -118 -250 -274 0
-367 118 0
-367 250 0
-367 274 0
368 -173 -369 0
-368 173 0
-368 369 0
369 38 -253 0
369 -38 -370 0
-369 -38 370 0
-369 38 253 0
370 -40 -301 0
370 40 -305 0
-370 40 305 0
-370 -40 301 0
371 -120 -274 -356 -372 0
-371 372 0
-371 120 0
-371 356 0
-371 274 0
372 -124 -373 0
-372 124 0
-372 373 0
373 146 -260 0
373 -146 -354 0
-373 -146 354 0
-373 146 260 0
-374 375 381 -388 -390 0
-374 -375 -381 -388 -390 0
-374 375 381 388 390 0
-374 -375 -381 388 390 0
374 375 -381 0
374 -375 381 0
374 388 -390 0
374 -388 390 0
375 -5 36 -379 0
375 -5 -36 -376 0
-375 5 0
-375 -36 376 0
-375 36 379 0
-376 -38 377 0
-376 38 378 0
376 -38 -377 0
376 38 -378 0
-377 40 202 0
-377 -40 198 0
377 -40 -198 0
377 40 -202 0
378 -40 -205 0
378 40 -210 0
-378 40 210 0
-378 -40 205 0
379 38 -175 0
379 -38 -380 0
-379 -38 380 0
-379 38 175 0
380 -40 -213 0
380 40 -217 0
-380 40 217 0
-380 -40 213 0
381 -46 -123 -249 -382 0
-381 382 0
-381 46 0
-381 249 0
-381 123 0
382 -143 -383 0
382 143 -386 0
-382 143 386 0
-382 -143 383 0
383 -146 -384 0
383 146 -385 0
-383 146 385 0
-383 -146 384 0
384 -149 -227 0
384 149 -231 0
-384 149 231 0
-384 -149 227 0
385 -149 -234 0
385 149 -239 0
-385 149 239 0
-385 -149 234 0
386 146 -186 0
386 -146 -387 0
-386 -146 387 0
-386 146 186 0
387 -149 -242 0
387 149 -246 0
-387 149 246 0
-387 -149 242 0
388 -173 -389 0
-388 173 0
-388 389 0
389 -38 -270 0
-389 38 0
-389 270 0
390 -47 -92 -278 -391 0
-390 391 0
-390 47 0
-390 278 0
-390 92 0
391 -114 -276 -392 -393 0
-391 393 0
-391 114 0
-391 392 0
-391 276 0
392 -146 -283 0
-392 146 0
-392 283 0
393 -107 -394 -396 0
-393 107 0
-393 394 0
-393 396 0
394 -116 -395 0
-394 116 0
-394 395 0
395 -134 -137 0
-395 134 0
-395 137 0
396 -102 -126 -141 -397 0
-396 397 0
-396 102 0
-396 141 0
-396 126 0
397 -184 -398 0
-397 184 0
-397 398 0
398 -104 -139 0
-398 104 0
-398 139 0
-399 400 405 411 420 0
-399 -400 -405 411 420 0
399 -420 0
399 -400 405 0
399 -411 0
399 400 -405 0
400 -5 36 -369 0
400 -5 -36 -401 0
-400 5 0
-400 -36 401 0
-400 36 369 0
-401 -38 402 0
-401 38 404 0
401 -38 -402 0
401 38 -404 0
-402 -40 403 0
-402 40 294 0
402 40 -294 0
402 -40 -403 0
-403 42 333 0
-403 548 -42 43 0
403 -548 -42 0
403 42 -333 0
403 -42 -43 0
404 -40 -291 0
404 40 -298 0
-404 40 298 0
-404 -40 291 0
405 -46 -123 -249 -406 0
-405 406 0
-405 46 0
-405 249 0
-405 123 0
406 143 -373 0
406 -143 -407 0
-406 -143 407 0
-406 143 373 0
407 146 -355 0
407 -146 -408 0
-407 -146 408 0
-407 146 355 0
408 149 -310 0
408 -149 -409 0
-408 -149 409 0
-408 149 310 0
409 152 -343 0
409 -152 -410 0
-409 -152 410 0
-409 152 343 0
410 -549 -155 0
410 -548 155 0
-410 549 -155 0
-410 548 155 0
-411 412 414 -418 -419 0
-411 -412 -414 -418 -419 0
-411 412 414 418 419 0
-411 -412 -414 418 419 0
411 412 -414 0
411 -412 414 0
411 418 -419 0
411 -418 419 0
412 -173 -413 0
-412 173 0
-412 413 0
413 -38 -361 0
-413 38 0
-413 361 0
414 -46 -118 -415 -417 0
-414 417 0
-414 46 0
-414 415 0
-414 118 0
415 -141 -182 -416 0
-415 141 0
-415 182 0
-415 416 0
416 -146 -366 0
-416 146 0
-416 366 0
417 -106 -250 0
-417 106 0
-417 250 0
418 -173 -303 0
-418 173 0
-418 303 0
419 -46 -124 -316 -367 0
-419 367 0
-419 46 0
-419 316 0
-419 124 0
-420 421 422 423 444 0
-420 -421 -422 423 444 0
420 -444 0
420 -421 422 0
420 -423 0
420 421 -422 0
421 -173 -379 0
-421 173 0
-421 379 0
422 -46 -124 -367 -386 0
-422 386 0
-422 46 0
-422 367 0
-422 124 0
-423 424 431 -440 -441 0
-423 -424 -431 -440 -441 0
-423 424 431 440 441 0
-423 -424 -431 440 441 0
423 424 -431 0
423 -424 431 0
423 440 -441 0
423 -440 441 0
424 -5 36 -358 0
424 -5 -36 -425 0
-424 5 0
-424 -36 425 0
-424 36 358 0
-425 -38 426 0
-425 38 430 0
-425 38 -429 0
425 -38 -426 0
425 38 429 -430 0
-426 -40 428 0
-426 40 427 0
426 40 -427 0
426 -40 -428 0
427 -42 -200 0
427 42 -203 0
-427 42 203 0
-427 -42 200 0
428 -42 -196 0
428 42 -199 0
-428 42 199 0
-428 -42 196 0
429 -40 42 206 0
429 -40 -42 204 0
-429 40 0
-429 -42 -204 0
-429 42 -206 0
-430 40 -42 207 0
-430 40 42 211 0
430 -40 0
430 -42 -207 0
430 42 -211 0
431 -46 -123 -249 -432 0
-431 432 0
-431 46 0
-431 249 0
-431 123 0
432 143 -363 0
432 -143 -433 0
-432 -143 433 0
-432 143 363 0
433 -146 -434 0
433 146 -437 0
-433 146 437 0
-433 -146 434 0
434 -149 -435 0
434 149 -436 0
-434 149 436 0
-434 -149 435 0
435 -152 -226 0
435 152 -228 0
-435 152 228 0
-435 -152 226 0
436 -152 -229 0
436 152 -232 0
-436 152 232 0
-436 -152 229 0
437 -149 -438 0
437 149 -439 0
-437 149 439 0
-437 -149 438 0
438 -152 -233 0
438 152 -235 0
-438 152 235 0
-438 -152 233 0
439 -152 -236 0
439 152 -240 0
-439 152 240 0
-439 -152 236 0
440 -5 -36 0
440 -5 -174 0
-440 5 0
-440 36 174 0
441 -46 -123 -249 -442 0
-441 442 0
-441 46 0
-441 249 0
-441 123 0
442 143 -185 0
442 -143 -443 0
-442 -143 443 0
-442 143 185 0
443 -146 -385 0
443 146 -387 0
-443 146 387 0
-443 -146 385 0
-444 445 446 449 456 0
-444 -445 -446 449 456 0
444 -449 0
444 -445 446 0
444 -456 0
444 445 -446 0
445 -5 -36 0
445 -5 -413 0
-445 5 0
-445 36 413 0
446 -46 -123 -249 -447 0
-446 447 0
-446 46 0
-446 249 0
-446 123 0
447 143 -416 0
447 -143 -448 0
-447 -143 448 0
-447 143 416 0
448 146 -364 0
448 -146 -437 0
-448 -146 437 0
-448 146 364 0
449 -46 450 -452 0
449 -46 173 -452 0
-449 452 0
-449 46 0
-449 -173 -450 0
450 -38 -451 0
-450 38 0
-450 451 0
451 -519 -40 -42 -43 0
-451 43 0
-451 519 0
-451 42 0
-451 40 0
452 -96 -178 -181 -453 0
-452 453 0
-452 96 0
-452 181 0
-452 178 0
453 -182 -454 0
-453 182 0
-453 454 0
454 -146 -455 0
-454 146 0
-454 455 0
455 -149 -285 0
-455 149 0
-455 285 0
456 457 -460 0
456 -457 460 0
-456 -457 -460 0
-456 457 460 0
457 -173 -458 0
-457 173 0
-457 458 0
458 38 -451 0
458 -38 -459 0
-458 -38 459 0
-458 38 451 0
459 -40 -268 0
459 40 -271 0
-459 40 271 0
-459 -40 268 0
460 -46 -124 -367 -461 0
-460 461 0
-460 46 0
-460 367 0
-460 124 0
461 146 -455 0
461 -146 -462 0
-461 -146 462 0
-461 146 455 0
462 -149 -282 0
462 149 -284 0
-462 149 284 0
-462 -149 282 0
-463 464 465 469 478 0
-463 -464 -465 469 478 0
463 -478 0
463 -464 465 0
463 -469 0
463 464 -465 0
464 -5 -36 0
464 -5 -450 0
-464 5 0
-464 36 450 0
465 -46 -123 -249 -466 0
-465 466 0
-465 46 0
-465 249 0
-465 123 0
466 143 -454 0
466 -143 -467 0
-466 -143 467 0
-466 143 454 0
467 146 -462 0
467 -146 -468 0
-467 -146 468 0
-467 146 462 0
468 149 -281 0
468 -149 -347 0
-468 -149 347 0
-468 149 281 0
-469 173 470 -473 -474 0
-469 -173 -470 -473 -474 0
-469 173 470 473 474 0
-469 -173 -470 473 474 0
469 173 -470 0
469 -173 470 0
469 473 -474 0
469 -473 474 0
470 -46 -124 -367 -471 0
-470 471 0
-470 46 0
-470 367 0
-470 124 0
471 146 -325 0
471 -146 -472 0
-471 -146 472 0
-471 146 325 0
472 149 -365 0
472 -149 -439 0
-472 -149 439 0
-472 149 365 0
473 -5 -36 0
473 -5 -318 0
-473 5 0
-473 36 318 0
474 -46 -96 -98 -475 0
-474 475 0
-474 46 0
-474 98 0
-474 96 0
475 -123 -143 -476 0
475 -123 143 -324 0
-475 123 0
-475 143 324 0
-475 -143 476 0
476 146 -472 0
476 -146 -477 0
-476 -146 477 0
-476 146 472 0
477 -149 -436 0
477 149 -438 0
-477 149 438 0
-477 -149 436 0
-478 479 500 -510 -514 0
-478 479 500 510 514 0
478 -500 0
478 510 -514 0
478 -479 0
478 -510 514 0
-479 480 492 494 0
-479 480 -492 -494 0
479 -480 0
479 -492 494 0
479 492 -494 0
-480 481 482 -489 -490 0
-480 -481 -482 -489 -490 0
-480 481 482 489 490 0
-480 -481 -482 489 490 0
480 481 -482 0
480 -481 482 0
480 489 -490 0
480 -489 490 0
481 -5 -36 0
481 -5 -389 0
-481 5 0
-481 36 389 0
482 -80 -178 -483 -487 0
-482 487 0
-482 80 0
-482 483 0
-482 178 0
483 -114 -139 -141 -484 0
-483 484 0
-483 114 0
-483 141 0
-483 139 0
484 -101 -125 -394 -485 0
-484 394 0
-484 485 0
-484 101 0
-484 125 0
-485 143 392 0
-485 -143 486 0
485 143 -392 0
485 -143 -486 0
-486 -146 345 0
-486 146 280 0
486 146 -280 0
486 -146 -345 0
487 -48 -96 -488 0
-487 48 0
-487 96 0
-487 488 0
488 -86 -88 0
-488 86 0
-488 88 0
489 -173 -208 0
-489 173 0
-489 208 0
490 -124 -237 -488 -491 0
-490 491 0
-490 124 0
-490 488 0
-490 237 0
491 -48 -80 -367 0
-491 48 0
-491 80 0
-491 367 0
492 -5 -36 0
492 -5 -493 0
-492 5 0
-492 36 493 0
493 -38 -216 0
-493 38 0
-493 216 0
494 -80 -179 -487 -495 0
-494 495 0
-494 80 0
-494 487 0
-494 179 0
495 -102 -106 -275 -496 0
-495 496 0
-495 102 0
-495 275 0
-495 106 0
496 -143 -497 -499 0
496 143 -498 -499 0
-496 499 0
-496 143 498 0
-496 -143 497 0
497 -146 -230 0
497 146 -238 0
-497 146 238 0
-497 -146 230 0
498 -146 -245 0
-498 146 0
-498 245 0
499 -124 -398 0
-499 124 0
-499 398 0
-500 -5 501 502 -504 0
-500 -5 -501 -502 -504 0
-500 5 501 502 504 0
-500 5 -501 -502 504 0
500 5 -504 0
500 -5 504 0
500 -501 502 0
500 501 -502 0
501 -173 -493 0
-501 173 0
-501 493 0
502 -46 -118 -417 -503 0
-502 503 0
-502 46 0
-502 417 0
-502 118 0
503 -395 -396 -498 0
-503 395 0
-503 396 0
-503 498 0
504 -46 -123 -249 -505 0
-504 505 0
-504 46 0
-504 249 0
-504 123 0
505 143 -471 0
505 -143 -506 0
-505 -143 506 0
-505 143 471 0
506 146 -477 0
506 -146 -507 0
-506 -146 507 0
-506 146 477 0
507 149 -435 0
507 -149 -509 0
507 -149 -508 0
-507 149 435 0
-507 -149 508 509 0
508 -547 152 155 0
508 -548 152 -155 0
-508 -152 0
-508 547 155 0
-508 548 -155 0
509 -549 581 77 0
509 549 -581 -43 77 0
-509 -581 43 0
-509 549 581 0
-509 -77 0
-509 -549 -581 0
510 -5 36 -458 0
510 -5 -36 -511 0
-510 5 0
-510 -36 511 0
-510 36 458 0
-511 -38 512 0
-511 38 513 0
511 -38 -512 0
511 38 -513 0
-512 40 336 0
-512 -40 334 0
512 -40 -334 0
512 40 -336 0
513 40 -265 0
513 -40 -337 0
-513 -40 337 0
-513 40 265 0
514 -46 -118 -417 -515 0
-514 515 0
-514 46 0
-514 417 0
-514 118 0
515 -101 -123 -516 0
-515 101 0
-515 123 0
-515 516 0
516 143 -461 0
516 -143 -517 0
-516 -143 517 0
-516 143 461 0
517 146 -468 0
517 -146 -518 0
-517 -146 518 0
-517 146 468 0
518 -149 -344 0
518 149 -346 0
-518 149 346 0
-518 -149 344 0
-583 0
2 0

